# Objective value = -1.1899549427041993e+07
Slot(FER603M,1) 1
Slot(VEL202G,1) 1
Slot(LIF401G,1) 1
Slot(EDL612M,1) 1
Slot(HBV201G,1) 1
Slot(UMV203M,1) 1

Slot(RAF616M,2) 1
Slot(LIF635G,2) 1
Slot(LIF214G,2) 1
Slot(TOL202M,2) 1
Slot(JAR212G,2) 1
Slot(STA418M,2) 1
Slot(EDL201G,2) 1
Slot(EDL402M,2) 1
Slot(EDL206G,2) 1

Slot(RAF403G,3) 1
Slot(BYG603G,3) 1
Slot(TOL401G,3) 1
Slot(JED201G,3) 1
Slot(EDL402G,3) 1
Slot(LIF410G,3) 1
Slot(LIF243F,3) 1
Slot(RAF201G,3) 1
Slot(LIF215G,3) 1
Slot(UMV201G,3) 1
Slot(LEF617M,4) 1
Slot(BYG201G,4) 1
Slot(REI201G,4) 1
Slot(IDN603G,4) 1
Slot(TOV602M,4) 1
Slot(VEL402G,4) 1
Slot(LAN219G,4) 1
Slot(HBV203F,4) 1
Slot(JAR619G,4) 1
Slot(STA411G,4) 1
Slot(VEL215F,4) 1
Slot(EFN612M,4) 1
Slot(EDL403G,5) 1
Slot(JAR211G,5) 1
Slot(RAF401G,5) 1
Slot(LIF201G,5) 1
Slot(TOL403G,5) 1
Slot(IDN402G,5) 1
Slot(JAR611G,5) 1
Slot(LIF614M,5) 1
Slot(VEL601G,6) 1
Slot(HBV401G,6) 1
Slot(JAR417G,6) 1
Slot(EFN410G,6) 1
Slot(IDN403G,6) 1
Slot(LIF633G,6) 1
Slot(LIF227F,6) 1
Slot(EDL205G,6) 1
Slot(STA405G,7) 1
Slot(LIF403G,7) 1
Slot(FER609G,7) 1
Slot(FER211F,7) 1
Slot(BYG201M,7) 1
Slot(JAR418G,8) 1
Slot(STA401G,8) 1
Slot(HBV601G,8) 1
Slot(EFN406G,8) 1
Slot(REI202M,9) 1
Slot(FER409G,9) 1
Slot(FER210F,9) 1
Slot(UAU206M,9) 1
Slot(BYG601G,9) 1
Slot(RAF402G,9) 1
Slot(EDL401G,9) 1
Slot(VEL401G,9) 1
Slot(EFN208G,9) 1
Slot(LEF406G,10) 1
Slot(IDN209F,10) 1
Slot(STA207G,10) 1
Slot(RAF601G,10) 1
Slot(UMV203G,10) 1
Slot(EFN207G,10) 1
Slot(TOV201G,10) 1
Slot(VEL201G,10) 1
Slot(LAN604M,11) 1
Slot(STA403M,11) 1
Slot(STA205G,11) 1
Slot(LAN410G,11) 1
Slot(LAN209F,11) 1
Slot(JAR253F,12) 1
Slot(STA203G,12) 1
Slot(MAS201F,12) 1
Slot(EFN404G,12) 1
Slot(JAR415G,12) 1
Slot(JAR617G,13) 1
Slot(LAN205G,13) 1
Slot(EDL204G,13) 1
Slot(JAR202G,13) 1
Slot(EFN202G,13) 1
Slot(BYG202M,13) 1
Slot(TOL203M,13) 1
Slot(VEL405G,13) 1
Slot(EDL203G,13) 1
Slot(LIF412M,14) 1
Slot(BYG401G,14) 1
Slot(VEL218F,14) 1
Slot(IDN401G,14) 1
Slot(EFN408G,14) 1

Slot(UMV213F,15) 1
Slot(TOL203G,15) 1
Slot(UAU214M,15) 1
Slot(FER208G,15) 1
Slot(BYG203M,15) 1
Slot(LAN401G,15) 1

Slot(STA202G,16) 1
Slot(EFN205G,16) 1
Slot(EFN214G,16) 1
Slot(TOL203F,16) 1
Slot(LAN203G,16) 1
Slot(STA209G,16) 1
Slot(LIF615M,16) 1
Slot(LEF616M,16) 1
Slot(HBV402G,16) 1
Slot(RAF404G,16) 1
